% From JaCoP's nonogramRepository/data082.nin
 rows = 25;
 row_rule_len = 3;
 row_rules = array2d(1..rows, 1..row_rule_len, 
[
 0,0,7,
 0,6,1,
 0,2,7,
 0,2,12,
 2,4,5,
 2,3,2,
 2,3,4,
 2,4,6,
 2,5,7,
 1,6,9,
 1,7,11,
 1,9,12,
 1,7,10,
 1,7,9,
 2,6,8,
 2,7,7,
 2,7,6,
 2,7,5,
 2,7,3,
 2,9,2,
 0,3,8,
 0,4,2,
 0,0,6,
 0,0,2,
 0,0,20
]);

 cols = 25;
 col_rule_len = 5;
 col_rules = array2d(1..cols, 1..col_rule_len, 
[
 0,0,0,0,7,
 0,0,0,3,3,
 0,0,0,3,3,
 0,0,2,5,2,
 0,2,9,2,1,
 0,2,11,2,1,
 0,2,13,2,1,
 0,1,15,2,1,
 2,3,12,1,1,
 2,2,10,2,1,
 5,1,6,1,1,
 4,1,5,1,1,
 1,2,4,1,1,
 0,1,2,1,7,
 0,0,4,2,6,
 0,2,3,2,1,
 0,3,6,2,1,
 0,2,10,1,1,
 0,0,2,13,1,
 0,0,2,14,1,
 0,0,0,15,1,
 0,0,0,13,1,
 0,0,0,11,1,
 0,0,0,9,1,
 0,0,0,0,5
]);

